DATASET = "thpack5";
INSTANCE = "089";

WIDTH = 233;
HEIGHT = 220;
LENGTH = 587;

NO_OF_SHAPES = 12;
size = [|
  95,92,46 |
  65,60,40 |
  103,62,59 |
  71,65,52 |
  119,87,28 |
  109,92,78 |
  58,54,35 |
  98,73,64 |
  44,44,40 |
  70,69,35 |
  119,61,58 |
  89,55,45 |
|];

verticality = [|
  0,0,1 |
  1,1,1 |
  1,1,1 |
  1,1,1 |
  0,0,1 |
  1,1,1 |
  1,1,1 |
  1,1,1 |
  1,1,1 |
  0,1,1 |
  0,1,1 |
  1,1,1 |
|];

box_count = [
  5,
  10,
  8,
  8,
  4,
  11,
  11,
  8,
  8,
  4,
  10,
  6,
];
